solution status: optimal solution found
objective value:                                    0
shell_k_$_15                                        1 	(obj:0)
shell_k_$_28                                        1 	(obj:0)
shell_k_$_31                                        1 	(obj:0)
shell_j_$_19                                        1 	(obj:0)
shell_k_$_30                                        1 	(obj:0)
shell_j_$_29                                        1 	(obj:0)
shell_j_$_18                                        1 	(obj:0)
shell_j_$_16                                        1 	(obj:0)
shell_j_$_17                                        1 	(obj:0)
shell_j_$_32                                        1 	(obj:0)
$_29_x                                              1 	(obj:0)
$_29_y                                              1 	(obj:0)
$_29_z                                             -1 	(obj:0)
$_28_y                                              1 	(obj:0)
$_28_z                                             -1 	(obj:0)
$_18_x                                             -1 	(obj:0)
$_18_y                                              1 	(obj:0)
$_18_z                                             -1 	(obj:0)
$_19_x                                             -1 	(obj:0)
$_19_y                                             -1 	(obj:0)
$_16_x                                             -1 	(obj:0)
$_16_y                                              1 	(obj:0)
$_16_z                                              1 	(obj:0)
$_15_y                                              1 	(obj:0)
$_15_z                                              1 	(obj:0)
$_17_x                                              1 	(obj:0)
$_17_y                                              1 	(obj:0)
$_17_z                                              1 	(obj:0)
$_30_x                                              1 	(obj:0)
$_30_y                                             -1 	(obj:0)
$_30_z                                             -1 	(obj:0)
$_32_y                                             -1 	(obj:0)
$_32_z                                             -1 	(obj:0)
$_31_x                                             -1 	(obj:0)
$_31_y                                             -1 	(obj:0)
$_31_z                                             -1 	(obj:0)
